sat

(objectives
 ((bvadd PriceProv13 (bvadd PriceProv12 (bvadd PriceProv11 (bvadd PriceProv10 (bvadd PriceProv9 (bvadd PriceProv8 (bvadd PriceProv7 (bvadd PriceProv6 (bvadd PriceProv5 (bvadd PriceProv4 (bvadd PriceProv3 (bvadd PriceProv1 PriceProv2)))))))))))) (_ bv1999 32))
)
;; statistics
(
 :cnf-variables 2374
 :cnf-literals 8750
 :cnf-clauses 3810
 :sat-checks 15
 :sat-restarts 151
 :sat-decisions 1437786
 :sat-random-decisions 773
 :sat-propagations 4499560108
 :sat-theory-propagations 0
 :sat-watched-clauses-visited 9517731931
 :sat-binary-watched-clauses-visited 3359594146
 :sat-conflicts 1069548
 :sat-theory-conflicts 0
 :theory-necessary-interface-equalities 0
 :theory-extra-interface-equalities 0
 :euf-total-calls 1452522
 :euf-complete-calls 12
 :euf-conflicts 0
 :euf-implications 0
 :euf-explanations 0
 :euf-egraph-nodes-created 86405
 :euf-egraph-nodes-deleted 81150
 :euf-num-asserted-equalities 56790872
 :euf-num-asserted-inequalities 30589352
 :euf-num-merges 132321382
 :euf-num-merges-undone 132321382
 :euf-num-atoms-retold 19424
 :la-total-calls 1452522
 :la-complete-calls 12
 :la-conflicts 0
 :la-implications 0
 :la-explanations 0
 :la-num-equalities-split 0
 :la-num-tableau-rows 0
 :la-num-tableau-variables 0
 :bv-total-calls 1452522
 :bv-complete-calls 12
 :bv-conflicts 0
 :bv-implications 0
 :bv-explanations 0
 :fp-total-calls 1452522
 :fp-complete-calls 12
 :fp-conflicts 0
 :fp-implications 0
 :fp-explanations 0
 :arr-total-calls 1452522
 :arr-complete-calls 12
 :arr-conflicts 0
 :arr-implications 0
 :arr-explanations 0
 :arr-write-lemmas-added 0
 :arr-row-lemmas-added 0
 :arr-ext-lemmas-added 0
 :arr-const-lemmas-added 0
 :na-total-calls 1452522
 :na-complete-calls 12
 :na-conflicts 0
 :na-implications 0
 :na-explanations 0
 :na-num_nonlinear_multiplications 0
 :na-num_axiom_checks 0
 :na-num_zero_lemmas 0
 :na-num_sign_lemmas 0
 :na-num_neutral_lemmas 0
 :na-num_proportionality_lemmas 0
 :na-num_bound_lemmas 0
 :na-num_tangent_lemmas 0
 :na-num_monotonicity_lemmas 0
 :na-num_sat_checks 0
 :na-axiom_check_time 0.000
 :na-sat_check_time 0.000
 :time-seconds 2785.215
 :memory-mb 794.355
)
